&CONTROL
    calculation = 'md'
    verbosity = 'high'
    nstep = 100000
    prefix = 'temp',
/
&SYSTEM
	ibrav = 0,
	nat = 18,
	ntyp = 2,
 	ecutwfc = 60.0D0,
	nosym=.true.
/
&ELECTRONS
	conv_thr = 1.D-6,
	electron_maxstep = 300,
/
&IONS
        ion_temperature = 'andersen',
        tempw = 300,
/
&CELL
/
ATOMIC_SPECIES
H	1.0079	H.pbe-tm-new-gipaw-dc.UPF
C	12.0107	C.pbe-tm-new-gipaw-dc.UPF
ATOMIC_POSITIONS angstrom
C 6.4983005 5.063956166666668 5.120300000000001
C 5.674299499999999 6.253855166666668 4.639200500000001
C 4.325700499999999 6.253855166666668 5.3607995000000015
C 3.501699499999999 5.063956166666668 4.8797000000000015
C 4.2483995 3.732055166666668 4.8614000000000015
C 5.7516004999999994 3.732055166666668 5.138600000000001
H 6.835500499999999 5.279356166666668 6.153099500000001
H 7.4022005 4.963855166666668 4.489100000000001
H 5.5133 6.1914551666666675 3.545600000000001
H 6.224899999999999 7.186055666666668 4.870100000000002
H 3.7750999999999992 7.186055666666668 5.129900000000001
H 4.486699999999999 6.1914551666666675 6.454400000000001
H 3.1644995 5.279356166666668 3.846900500000001
H 2.5977995 4.963855166666668 5.5109
H 4.086600499999999 3.2758556666666676 3.865100000000001
H 3.7746994999999997 3.053555666666668 5.5973000000000015
H 5.9133995 3.2758556666666676 6.134900000000001
H 6.225300499999999 3.053555666666668 4.402700000000001

CELL_PARAMETERS angstrom
10.0 0.0 0.0
0.0 10.0 0.0
0.0 0.0 10.0