&CONTROL
    calculation = 'relax'
    verbosity = 'high'
    restart_mode = 'from_scratch'
    tprnfor = .true.
    prefix = 'temp',
    forc_conv_thr = 1.0D-4,
    etot_conv_thr = 1.0D-3,
/
&SYSTEM
	ibrav = 0,
	nat = 18,
	ntyp = 2,
 	ecutwfc = 60.0D0,
	ecutrho = 240.0D0,
	vdw_corr = 'dft-d',
	nosym=.true.
	nbnd = 21,
/
&ELECTRONS
	conv_thr = 1.D-10,
  	mixing_beta = 0.5D0,
	electron_maxstep = 300,
	diagonalization='cg',
/
&IONS
        ion_temperature = 'svr',
        tempw = 300,
/
&CELL
/
ATOMIC_SPECIES
H	1.0079	H.pbe-tm-new-gipaw-dc.UPF
C	12.0107	C.pbe-tm-new-gipaw-dc.UPF
ATOMIC_POSITIONS angstrom
C	9.0182	7.5	7.5
C	8.1662	8.7212	7.8761
C	6.8338	8.7212	7.1239
C	5.9818	7.5	7.5
C	6.8338	6.2788	7.8761
C	8.1662	6.2788	7.1239
H	9.6661	7.2476	8.3615
H	9.6661	7.7524	6.6385
H	8.7305	9.6438	7.6407
H	7.962	8.7027	8.9643
H	7.038	8.7027	6.0357
H	6.2695	9.6438	7.3593
H	5.3339	7.2476	6.6385
H	5.3339	7.7524	8.3615
H	6.2695	5.356199999999999	7.6407
H	7.038	6.2973	8.9643
H	8.7305	5.356199999999999	7.3593
H	7.962	6.2973	6.0357

CELL_PARAMETERS angstrom
15.0 0.0 0.0
0.0 15.0 0.0
0.0 0.0 15.0
