&CONTROL
    calculation = 'scf'
    verbosity = 'high'
    restart_mode = 'from_scratch'
    tprnfor = .true.
    prefix = 'temp',
    forc_conv_thr = 1.0D-4,
    etot_conv_thr = 1.0D-3,
/
&SYSTEM
	ibrav = 0,
	nat = 18,
	ntyp = 2,
 	ecutwfc = 60.0D0,
	ecutrho = 240.0D0,
	vdw_corr = 'dft-d',
	nosym=.true.
	nbnd = 21,
/
&ELECTRONS
	conv_thr = 1.D-10,
  	mixing_beta = 0.5D0,
	electron_maxstep = 300,
	diagonalization='cg',
/
&IONS
        ion_temperature = 'svr',
        tempw = 300,
/
&CELL
/
ATOMIC_SPECIES
H	1.0079	H.pbe-tm-new-gipaw-dc.UPF
C	12.0107	C.pbe-tm-new-gipaw-dc.UPF
ATOMIC_POSITIONS angstrom
C	8.899505555555555	7.505805555555556	7.898205555555555
C	8.283105555555556	8.740405555555556	7.241905555555555
C	6.778105555555555	8.824805555555555	7.4724055555555555
C	6.033505555555555	7.505805555555556	7.675005555555556
C	6.778105555555555	6.186805555555556	7.4724055555555555
C	8.283105555555556	6.2712055555555555	7.241905555555555
H	8.701505555555556	7.505805555555556	8.987505555555556
H	9.992305555555555	7.505805555555556	7.7224055555555555
H	8.480905555555555	8.696605555555555	6.153205555555555
H	8.757005555555555	9.658105555555554	7.640305555555556
H	6.325405555555555	9.365705555555556	6.618805555555555
H	6.6016055555555555	9.440905555555556	8.375705555555555
H	5.140905555555555	7.505805555555556	7.019605555555556
H	5.652805555555556	7.505805555555556	8.715305555555556
H	6.325405555555555	5.645905555555555	6.618805555555555
H	6.6016055555555555	5.570705555555556	8.375705555555555
H	8.757005555555555	5.3535055555555555	7.640305555555556
H	8.480905555555555	6.3150055555555555	6.153205555555555

CELL_PARAMETERS angstrom
15.0 0.0 0.0
0.0 15.0 0.0
0.0 0.0 15.0
