&CONTROL
    calculation = 'scf'
    verbosity = 'high'
    restart_mode = 'from_scratch'
    tprnfor = .true.
    prefix = 'temp',
    forc_conv_thr = 1.0D-4,
    etot_conv_thr = 1.0D-3,
/
&SYSTEM
	ibrav = 0,
	nat = 18,
	ntyp = 2,
 	ecutwfc = 60.0D0,
	ecutrho = 240.0D0,
	vdw_corr = 'dft-d',
	nosym=.true.
	nbnd = 21,
/
&ELECTRONS
	conv_thr = 1.D-10,
  	mixing_beta = 0.5D0,
	electron_maxstep = 300,
	diagonalization='cg',
/
&IONS
        ion_temperature = 'svr',
        tempw = 300,
/
&CELL
/
ATOMIC_SPECIES
H	1.0079	H.pbe-tm-new-gipaw-dc.UPF
C	12.0107	C.pbe-tm-new-gipaw-dc.UPF
ATOMIC_POSITIONS angstrom
C	8.857481481481482	7.495681481481482	7.086181481481481
C	8.26278148148148	8.760181481481482	7.712981481481481
C	6.7285814814814815	8.760181481481482	7.712981481481481
C	6.133881481481481	7.495681481481482	7.086181481481481
C	6.7285814814814815	6.231181481481482	7.712981481481481
C	8.26278148148148	6.231181481481482	7.712981481481481
H	9.953481481481482	7.495681481481482	7.241681481481481
H	8.66218148148148	7.495681481481482	5.996581481481481
H	8.630581481481482	9.642681481481482	7.154981481481482
H	8.617781481481481	8.839981481481482	8.758681481481482
H	6.360781481481482	9.642681481481482	7.154981481481482
H	6.373581481481481	8.839981481481482	8.758681481481482
H	6.3291814814814815	7.495681481481482	5.996581481481481
H	5.037881481481481	7.495681481481482	7.241681481481481
H	6.360781481481482	5.348681481481481	7.154981481481482
H	6.373581481481481	6.151381481481481	8.758681481481482
H	8.617781481481481	6.151381481481481	8.758681481481482
H	8.630581481481482	5.348681481481481	7.154981481481482

CELL_PARAMETERS angstrom
15.0 0.0 0.0
0.0 15.0 0.0
0.0 0.0 15.0
