&CONTROL
    calculation = 'md'
    verbosity = 'high'
    nstep = 100000
    prefix = 'temp',
/
&SYSTEM
	ibrav = 0,
	nat = 18,
	ntyp = 2,
 	ecutwfc = 60.0D0,
	nosym=.true.
/
&ELECTRONS
	conv_thr = 1.D-6,
	electron_maxstep = 300,
/
&IONS
        ion_temperature = 'andersen',
        tempw = 300,
/
&CELL
/
ATOMIC_SPECIES
H	1.0079	H.pbe-tm-new-gipaw-dc.UPF
C	12.0107	C.pbe-tm-new-gipaw-dc.UPF
ATOMIC_POSITIONS angstrom
C 6.442505833333334 5.004201749999999 4.744961750000002
C 5.717537833333333 6.25134525 5.255014250000002
C 4.275091333333333 6.24712875 4.7449737500000015
C 3.557527333333333 4.99575825 5.255014250000002
C 4.282447333333333 3.7486972499999993 4.744994750000002
C 5.724899833333334 3.752915249999999 5.2550352500000015
H 6.442526833333334 5.00427825 3.655031750000002
H 7.470157333333333 5.00723325 5.108315750000002
H 5.717575333333333 6.251271749999999 6.345025250000003
H 6.228797833333333 7.14284475 4.891741250000002
H 6.241360333333333 2.8644367499999994 4.891696250000002
H 5.7248728333333325 3.752835749999999 6.344966750000001
H 3.758624833333333 7.13560575 5.108312750000002
H 4.275160333333333 6.247122749999999 3.6550107500000015
H 3.557458333333333 4.99576425 6.344977250000001
H 2.5298758333333327 4.992728249999999 4.891660250000002
H 4.282393333333333 3.7486342499999994 3.6550002500000023
H 3.771187333333333 2.857197749999999 5.108267750000002

CELL_PARAMETERS angstrom
10.0 0.0 0.0
0.0 10.0 0.0
0.0 0.0 10.0