&CONTROL
    calculation = 'scf'
    verbosity = 'high'
    restart_mode = 'from_scratch'
    tprnfor = .true.
    prefix = 'temp',
    forc_conv_thr = 1.0D-4,
    etot_conv_thr = 1.0D-3,
/
&SYSTEM
	ibrav = 0,
	nat = 18,
	ntyp = 2,
 	ecutwfc = 60.0D0,
	ecutrho = 240.0D0,
	vdw_corr = 'dft-d',
	nosym=.true.
	nbnd = 21,
/
&ELECTRONS
	conv_thr = 1.D-10,
  	mixing_beta = 0.5D0,
	electron_maxstep = 300,
	diagonalization='cg',
/
&IONS
        ion_temperature = 'svr',
        tempw = 300,
/
&CELL
/
ATOMIC_SPECIES
H	1.0079	H.pbe-tm-new-gipaw-dc.UPF
C	12.0107	C.pbe-tm-new-gipaw-dc.UPF
ATOMIC_POSITIONS angstrom
C	9.002485185185185	7.555585185185185	7.624485185185185
C	8.178485185185185	8.745485185185185	7.143385185185185
C	6.829885185185185	8.745485185185185	7.864985185185185
C	6.0058851851851855	7.555585185185185	7.383885185185185
C	6.752585185185185	6.223685185185185	7.365585185185185
C	8.255785185185186	6.223685185185185	7.642785185185185
H	9.339685185185186	7.770985185185185	8.657285185185184
H	9.906385185185185	7.455485185185185	6.993285185185185
H	8.017485185185185	8.683085185185185	6.049785185185185
H	8.729085185185186	9.677685185185185	7.374285185185185
H	6.279285185185185	9.677685185185185	7.634085185185185
H	6.990885185185185	8.683085185185185	8.958585185185186
H	5.668685185185185	7.770985185185185	6.351085185185186
H	5.101985185185185	7.455485185185185	8.015085185185185
H	6.590785185185185	5.767485185185185	6.369285185185185
H	6.278885185185185	5.545185185185185	8.101485185185185
H	8.417585185185185	5.767485185185185	8.639085185185186
H	8.729485185185185	5.545185185185185	6.906885185185185

CELL_PARAMETERS angstrom
15.0 0.0 0.0
0.0 15.0 0.0
0.0 0.0 15.0
