&CONTROL
    calculation = 'scf'
    verbosity = 'high'
    restart_mode = 'from_scratch'
    tprnfor = .true.
    prefix = 'temp',
    forc_conv_thr = 1.0D-4,
    etot_conv_thr = 1.0D-3,
/
&SYSTEM
	ibrav = 0,
	nat = 18,
	ntyp = 2,
 	ecutwfc = 60.0D0,
	ecutrho = 240.0D0,
	vdw_corr = 'dft-d',
	nosym=.true.
	nbnd = 21,
/
&ELECTRONS
	conv_thr = 1.D-10,
  	mixing_beta = 0.5D0,
	electron_maxstep = 300,
	diagonalization='cg',
/
&IONS
        ion_temperature = 'svr',
        tempw = 300,
/
&CELL
/
ATOMIC_SPECIES
H	1.0079	H.pbe-tm-new-gipaw-dc.UPF
C	12.0107	C.pbe-tm-new-gipaw-dc.UPF
ATOMIC_POSITIONS angstrom
C	8.942505222037036	7.504202082037037	7.244963092037037
C	8.217537682037037	8.751345552037037	7.755014292037037
C	8.224898532037038	6.252914542037037	7.755036512037037
C	6.775090462037037	8.747128002037037	7.244974212037037
C	6.057526112037037	7.495758712037037	7.755014292037037
C	6.782446022037037	6.248697002037037	7.244995902037037
H	8.942526382037038	7.504278412037037	6.155033122037037
H	9.970156852037038	7.507232902037037	7.608315772037037
H	8.217574722037037	8.751271462037037	8.845026292037037
H	8.728796982037037	9.642845172037037	7.391742052037037
H	8.741359652037037	5.364436522037037	7.391697592037037
H	8.224872072037037	6.252835162037037	8.844968082037036
H	6.258624052037037	9.635606022037038	7.608313132037037
H	6.775159252037037	8.747122712037037	6.155011952037037
H	6.057457312037037	7.495764692037037	8.844978662037038
H	5.0298744720370365	7.492727942037037	7.391661612037037
H	6.782393102037037	6.248633502037038	6.155001372037037
H	6.2711867120370375	5.357197382037037	7.608268682037037

CELL_PARAMETERS angstrom
15.0 0.0 0.0
0.0 15.0 0.0
0.0 0.0 15.0
