&CONTROL
    calculation = 'md'
    verbosity = 'high'
    nstep = 100000
    prefix = 'temp',
/
&SYSTEM
	ibrav = 0,
	nat = 18,
	ntyp = 2,
 	ecutwfc = 60.0D0,
	nosym=.true.
/
&ELECTRONS
	conv_thr = 1.D-6,
	electron_maxstep = 300,
/
&IONS
        ion_temperature = 'andersen',
        tempw = 300,
/
&CELL
/
ATOMIC_SPECIES
H	1.0079	H.pbe-tm-new-gipaw-dc.UPF
C	12.0107	C.pbe-tm-new-gipaw-dc.UPF
ATOMIC_POSITIONS angstrom
C 6.361800499999999 5.0 4.5775441666666685
C 5.767099999999999 6.2645 5.204344666666668
C 4.2329 6.2645 5.204344666666668
C 3.6381995 5.0 4.5775441666666685
C 4.2329 3.7355 5.204344666666668
C 5.767099999999999 3.7355 5.204344666666668
H 7.4577995 5.0 4.733044666666668
H 6.1665005 5.0 3.4879441666666677
H 6.1349 7.1469995 4.646344666666669
H 6.1221005 6.3443000000000005 6.250044166666668
H 3.8651 7.1469995 4.646344666666669
H 3.8778995 6.3443000000000005 6.250044166666668
H 3.8334995000000003 5.0 3.4879441666666677
H 2.5422005 5.0 4.733044666666668
H 3.8651 2.8530005000000003 4.646344666666669
H 3.8778995 3.6557000000000004 6.250044166666668
H 6.1221005 3.6557000000000004 6.250044166666668
H 6.1349 2.8530005000000003 4.646344666666669

CELL_PARAMETERS angstrom
10.0 0.0 0.0
0.0 10.0 0.0
0.0 0.0 10.0