&CONTROL
    calculation = 'md'
    verbosity = 'high'
    nstep = 100000
    prefix = 'temp',
/
&SYSTEM
	ibrav = 0,
	nat = 18,
	ntyp = 2,
 	ecutwfc = 60.0D0,
	nosym=.true.
/
&ELECTRONS
	conv_thr = 1.D-6,
	electron_maxstep = 300,
/
&IONS
        ion_temperature = 'andersen',
        tempw = 300,
/
&CELL
/
ATOMIC_SPECIES
H	1.0079	H.pbe-tm-new-gipaw-dc.UPF
C	12.0107	C.pbe-tm-new-gipaw-dc.UPF
ATOMIC_POSITIONS angstrom
C 6.5138 4.999999999999998 5.0
C 5.7569 6.310999999999998 5.0
C 4.2431 6.310999999999998 5.0
C 3.4862 4.999999999999998 5.0
C 4.2431 3.6889999999999983 5.0
C 5.7569 3.6889999999999983 5.0
H 7.182399500000001 4.999999999999998 5.8832
H 7.182399500000001 4.999999999999998 4.1168
H 6.091200499999999 6.889999999999999 4.1168
H 6.091200499999999 6.889999999999999 5.8832
H 3.9087994999999998 6.889999999999999 4.1168
H 3.9087994999999998 6.889999999999999 5.8832
H 2.8176005 4.999999999999998 4.1168
H 2.8176005 4.999999999999998 5.8832
H 3.9087994999999998 3.1099999999999985 4.1168
H 3.9087994999999998 3.1099999999999985 5.8832
H 6.091200499999999 3.1099999999999985 5.8832
H 6.091200499999999 3.1099999999999985 4.1168

CELL_PARAMETERS angstrom
10.0 0.0 0.0
0.0 10.0 0.0
0.0 0.0 10.0