&CONTROL
    calculation = 'md'
    verbosity = 'high'
    nstep = 100000
    prefix = 'temp',
/
&SYSTEM
	ibrav = 0,
	nat = 18,
	ntyp = 2,
 	ecutwfc = 60.0D0,
	nosym=.true.
/
&ELECTRONS
	conv_thr = 1.D-6,
	electron_maxstep = 300,
/
&IONS
        ion_temperature = 'andersen',
        tempw = 300,
/
&CELL
/
ATOMIC_SPECIES
H	1.0079	H.pbe-tm-new-gipaw-dc.UPF
C	12.0107	C.pbe-tm-new-gipaw-dc.UPF
ATOMIC_POSITIONS angstrom
C 6.5181995 4.999999999999998 5.000000000000002
C 5.666199499999999 6.221199499999999 5.376099500000001
C 4.3338005 6.221199499999999 4.623900500000002
C 3.4818005000000003 4.999999999999998 5.000000000000002
C 4.3338005 3.7788004999999982 5.376099500000001
C 5.666199499999999 3.7788004999999982 4.623900500000002
H 7.166100500000001 4.747599499999998 5.8614995000000025
H 7.166100500000001 5.2524004999999985 4.138500500000002
H 6.2304995000000005 7.143799999999999 5.140700000000002
H 5.462 6.202699999999998 6.4643000000000015
H 4.538 6.202699999999998 3.535700000000002
H 3.7695005000000004 7.143799999999999 4.859300000000002
H 2.8338995000000002 4.747599499999998 4.138500500000002
H 2.8338995000000002 5.2524004999999985 5.8614995000000025
H 3.7695005000000004 2.8561999999999985 5.140700000000002
H 4.538 3.797299999999998 6.4643000000000015
H 6.2304995000000005 2.8561999999999985 4.859300000000002
H 5.462 3.797299999999998 3.535700000000002

CELL_PARAMETERS angstrom
10.0 0.0 0.0
0.0 10.0 0.0
0.0 0.0 10.0