&CONTROL
    calculation = 'md'
    verbosity = 'high'
    restart_mode = 'from_scratch'
    tprnfor = .true.
    nstep = 500000
    prefix = 'temp',
    forc_conv_thr = 1.0D-4,
    etot_conv_thr = 1.0D-3,
/
&SYSTEM
	ibrav = 0,
	nat = 18,
	ntyp = 2,
 	ecutwfc = 60.0D0,
	ecutrho = 240.0D0,
	vdw_corr = 'dft-d',
	nosym=.true.
	nbnd = 21,
/
&ELECTRONS
	conv_thr = 1.D-10,
  	mixing_beta = 0.5D0,
	electron_maxstep = 300,
	diagonalization='cg',
/
&IONS
        ion_temperature = 'svr',
        tempw = 300,
/
&CELL
/
ATOMIC_SPECIES
H	1.0079	H.pbe-tm-new-gipaw-dc.UPF
C	12.0107	C.pbe-tm-new-gipaw-dc.UPF
ATOMIC_POSITIONS angstrom
C        8.94250500       7.50420150       7.24496250      
C        8.21753700       8.75134500       7.75501500     
C        8.22489900       6.25291500       7.75503600    
C        6.77509050       8.74712850       7.24497450   
C        6.05752650       7.49575800       7.75501500  
C        6.78244650       6.24869700       7.24499550       
H        8.94252600       7.50427800       6.15503250      
H        9.97015650       7.50723300       7.60831650     
H        8.21757450       8.75127150       8.84502600    
H        8.72879700       9.64284450       7.39174200   
H        8.74135950       5.36443650       7.39169700  
H        8.22487200       6.25283550       8.84496750 
H        6.25862400       9.63560550       7.60831350      
H        6.77515950       8.74712250       6.15501150     
H        6.05745750       7.49576400       8.84497800    
H        5.02987500       7.49272800       7.39166100   
H        6.78239250       6.24863400       6.15500100  
H        6.27118650       5.35719750       7.60826850 

CELL_PARAMETERS angstrom
15.0 0.0 0.0
0.0 15.0 0.0
0.0 0.0 15.0
