&CONTROL
    calculation = 'md'
    verbosity = 'high'
    restart_mode = 'from_scratch'
    tprnfor = .true.
    nstep = 500000
    prefix = 'temp',
    forc_conv_thr = 1.0D-4,
    etot_conv_thr = 1.0D-3,
/
&SYSTEM
	ibrav = 0,
	nat = 18,
	ntyp = 2,
 	ecutwfc = 60.0D0,
	ecutrho = 240.0D0,
	vdw_corr = 'dft-d',
	nosym=.true.
	nbnd = 21,
/
&ELECTRONS
	conv_thr = 1.D-10,
  	mixing_beta = 0.5D0,
	electron_maxstep = 300,
	diagonalization='cg',
/
&IONS
        ion_temperature = 'svr',
        tempw = 300,
/
&CELL
/
ATOMIC_SPECIES
H	1.0079	H.pbe-tm-new-gipaw-dc.UPF
C	12.0107	C.pbe-tm-new-gipaw-dc.UPF
ATOMIC_POSITIONS angstrom
C	9.042023626	7.499999999998575	7.6
C	8.2710118121	8.835431631999942	7.4
C	6.728988187900001	8.835431631999942	7.6
C	5.957976374	7.500000000002252	7.4
C	6.728988187900001	6.164568367999942	7.6
C	8.2710118121	6.164568367999942	7.4
H	9.709663087	7.499999999999918	8.366048965100125
H	9.709663087	7.5000000000001865	6.633951034900125
H	8.604831543	9.413624365999942	6.633951035500125
H	8.604831543	9.413624365999942	8.366048964500125
H	6.3951684570000005	9.413624365999942	6.633951035500125
H	6.3951684570000005	9.413624365999942	8.366048964500125
H	5.290336913	7.50000000000089	6.633951034900125
H	5.290336913	7.499999999998874	8.366048965100125
H	6.3951684570000005	5.586375633999942	6.633951035500125
H	6.3951684570000005	5.586375633999942	8.366048964500125
H	8.604831543	5.586375633999942	8.366048964500125
H	8.604831543	5.586375633999942	6.633951035500125

CELL_PARAMETERS angstrom
15.0 0.0 0.0
0.0 15.0 0.0
0.0 0.0 15.0
